000 000 000 000 000 000 000 000 -99 -99 -99 -99 000 000 000 000 -99 -99 000 000 000 000 000 007 000 000 000 -99 -99 -99 -99
000 000 000 000 000 000 000 000 -99 -99 -99 -99 -99 000 000 -99 -99 -99 -99 000 -99 000 000 039 000 000 -99 -99 -99 -99 -99
-99 000 000 000 000 000 000 -99 -99 -99 -99 -99 -99 -99 000 -99 -99 -99 -99 -99 -99 -99 000 058 000 000 -99 -99 -99 -99 -99
-99 -99 000 000 000 000 000 -99 000 000 -99 -99 -99 -99 -99 -99 -99 -99 -99 000 000 -99 000 046 005 000 -99 -99 -99 -99 -99
000 000 000 000 000 000 000 000 000 000 -99 -99 000 000 -99 -99 -99 -99 -99 000 000 000 000 012 000 000 -99 -99 -99 -99 -99
000 000 000 000 -99 000 000 000 000 000 -99 -99 000 000 000 -99 -99 000 -99 000 000 000 000 000 000 000 -99 -99 -99 -99 -99
000 000 000 000 000 -99 000 000 000 000 000 -99 000 000 -99 -99 000 000 000 000 000 000 000 000 000 000 -99 -99 -99 -99 -99
000 000 000 000 000 -99 -99 000 000 000 000 000 -99 -99 000 -99 000 000 000 -99 000 000 000 000 000 000 -99 -99 -99 000 -99
000 000 000 000 000 -99 -99 000 000 000 000 000 -99 -99 -99 -99 000 000 000 -99 000 -99 -99 000 000 -99 -99 -99 -99 000 000
000 000 000 000 000 -99 -99 -99 -99 000 000 000 -99 -99 000 000 -99 -99 000 -99 000 000 -99 -99 000 000 -99 -99 -99 000 000
000 000 000 000 000 -99 -99 -99 -99 000 000 000 -99 -99 -99 000 000 -99 000 -99 000 000 -99 -99 000 -99 -99 -99 -99 000 000
000 000 000 000 000 000 000 000 000 000 000 000 -99 -99 -99 000 000 -99 000 -99 -99 000 -99 -99 000 -99 000 -99 -99 000 000
000 000 000 000 000 000 000 000 000 000 000 -99 -99 -99 -99 000 000 -99 -99 -99 -99 -99 -99 000 000 -99 000 -99 000 000 000
000 000 000 000 000 000 000 000 000 000 -99 -99 000 000 -99 000 000 -99 -99 000 000 -99 -99 000 000 000 000 000 -99 -99 000
000 -99 -99 000 000 000 000 000 000 000 -99 -99 000 000 000 000 000 -99 000 000 -99 -99 -99 000 000 000 000 000 000 -99 -99
-99 -99 -99 -99 000 000 000 000 000 000 -99 -99 000 -99 000 000 000 -99 000 000 -99 000 -99 000 000 000 000 000 000 -99 -99
-99 -99 -99 -99 -99 -99 000 000 000 000 000 -99 -99 -99 000 000 000 -99 000 000 -99 -99 000 000 000 000 000 000 000 000 -99
000 -99 -99 -99 -99 -99 -99 000 000 000 000 -99 -99 -99 -99 000 000 -99 -99 -99 -99 -99 000 -99 000 -99 -99 -99 -99 000 -99
000 000 000 -99 -99 -99 -99 000 000 000 000 000 -99 -99 -99 -99 000 000 -99 000 -99 -99 000 -99 -99 -99 -99 -99 -99 -99 -99
000 000 000 000 -99 -99 -99 000 000 000 000 000 -99 -99 -99 000 000 000 000 000 000 000 000 -99 -99 -99 -99 -99 -99 -99 -99
000 000 000 000 000 -99 -99 -99 000 000 000 -99 -99 -99 000 000 000 000 000 000 000 000 000 -99 -99 -99 -99 -99 -99 -99 -99
000 000 000 000 000 000 -99 000 000 000 000 -99 -99 000 000 000 000 000 000 000 000 000 000 -99 -99 -99 -99 -99 -99 -99 -99
000 000 000 000 000 000 -99 000 000 000 -99 -99 000 000 000 000 000 000 000 000 000 000 000 -99 -99 -99 -99 -99 -99 -99 -99
000 000 000 000 000 000 -99 000 000 000 -99 -99 000 000 000 000 000 000 000 000 000 000 000 -99 -99 -99 -99 -99 -99 -99 -99
000 000 000 000 000 000 000 000 000 -99 -99 -99 000 000 000 000 000 000 000 000 000 000 000 -99 -99 -99 -99 -99 -99 -99 -99
000 000 000 000 000 000 000 000 000 000 -99 -99 000 000 000 000 000 000 000 000 000 000 -99 -99 -99 -99 -99 -99 -99 -99 000
000 000 000 000 000 000 000 000 000 000 000 -99 -99 000 000 000 000 000 000 000 000 000 -99 -99 -99 -99 -99 -99 -99 -99 -99
000 000 000 000 000 000 -99 000 000 000 -99 -99 -99 000 000 000 000 000 000 000 000 000 -99 -99 -99 -99 -99 -99 -99 -99 -99
000 000 000 000 000 000 000 000 000 000 000 -99 -99 -99 000 000 000 -99 000 000 000 000 -99 -99 -99 -99 -99 -99 -99 -99 -99
000 000 000 000 000 000 000 000 000 000 000 -99 -99 000 000 000 000 000 000 000 -99 -99 -99 -99 -99 -99 -99 -99 -99 -99 -99
000 000 000 000 000 000 000 000 000 000 000 -99 -99 000 000 000 -99 000 000 000 000 -99 -99 -99 -99 -99 -99 -99 -99 -99 -99
000 000 000 000 000 000 -99 000 000 000 -99 -99 -99 000 000 -99 -99 000 000 000 000 -99 -99 -99 -99 -99 -99 -99 -99 -99 -99
000 000 000 000 000 000 -99 000 000 000 -99 -99 -99 000 000 -99 -99 -99 -99 -99 -99 -99 -99 -99 000 000 -99 000 -99 -99 000
000 000 000 000 000 000 000 000 000 000 -99 -99 -99 000 000 -99 -99 -99 -99 -99 -99 000 -99 -99 000 000 000 000 000 000 000
000 000 000 000 000 000 000 000 000 000 -99 -99 000 -99 -99 -99 -99 -99 -99 -99 000 000 -99 000 000 000 000 000 000 000 000
000 000 000 000 000 000 000 000 000 000 000 -99 000 000 000 000 000 -99 000 000 000 000 -99 -99 000 000 000 000 000 000 -99
000 000 000 000 000 000 000 000 000 000 000 -99 000 000 000 000 000 000 000 000 000 000 -99 -99 000 000 000 000 000 000 -99
000 000 000 000 000 000 000 000 000 000 -99 000 000 000 000 000 000 -99 000 000 000 000 -99 -99 000 000 000 000 000 000 -99
000 000 000 000 000 000 000 -99 -99 000 -99 000 000 000 000 000 000 000 000 000 000 -99 -99 000 000 000 000 000 000 -99 -99
000 000 000 000 000 -99 000 -99 -99 -99 -99 000 000 000 000 000 000 000 000 000 000 -99 000 000 000 000 000 000 000 -99 -99
000 000 000 000 000 -99 -99 -99 -99 000 000 000 000 000 000 000 000 000 000 000 -99 000 000 000 000 000 000 000 -99 -99 -99
000 000 000 000 000 000 000 -99 000 000 000 000 000 000 000 000 000 000 000 000 -99 000 000 000 000 000 -99 -99 -99 000 -99
000 -99 -99 000 000 000 000 -99 -99 000 000 000 000 000 000 000 000 000 000 -99 -99 000 000 000 000 000 000 -99 -99 000 -99
000 -99 -99 -99 000 000 -99 -99 -99 -99 -99 -99 000 000 000 000 000 000 000 -99 -99 000 000 000 000 000 000 000 000 -99 -99
000 -99 -99 -99 000 -99 -99 -99 -99 -99 -99 000 000 000 000 000 000 000 000 -99 -99 000 000 000 000 000 000 000 -99 -99 -99
000 -99 -99 -99 -99 -99 -99 -99 -99 -99 -99 000 000 000 000 000 000 000 000 000 000 000 000 000 000 000 001 000 -99 001 -99
000 -99 -99 -99 -99 -99 -99 -99 -99 -99 -99 000 000 000 000 -99 -99 000 000 000 000 000 000 000 000 000 000 -99 004 001 -99
000 -99 -99 -99 -99 -99 -99 -99 -99 -99 -99 -99 000 000 000 -99 -99 000 000 000 000 000 000 000 000 000 000 002 005 001 001
000 -99 -99 -99 -99 -99 -99 -99 000 000 -99 -99 000 000 000 -99 000 000 000 000 000 001 000 000 000 000 000 001 006 001 -99
-99 -99 -99 -99 -99 -99 -99 -99 000 000 000 000 -99 000 -99 -99 000 000 000 000 000 000 000 000 000 -99 000 001 002 000 000
-99 -99 -99 -99 -99 -99 -99 -99 000 000 000 000 000 000 000 000 000 000 000 000 000 000 000 000 -99 -99 000 000 000 000 000
-99 -99 -99 -99 -99 -99 -99 -99 -99 -99 000 -99 000 000 -99 000 000 000 000 000 000 000 000 -99 -99 000 000 000 -99 -99 -99
-99 -99 -99 -99 -99 -99 -99 -99 -99 000 000 -99 -99 -99 -99 -99 000 000 000 000 000 000 -99 -99 -99 -99 -99 000 -99 -99 -99
-99 -99 -99 -99 -99 -99 -99 -99 -99 000 -99 -99 -99 -99 -99 000 000 000 000 000 -99 -99 -99 -99 -99 -99 -99 -99 -99 -99 -99
-99 -99 -99 -99 -99 -99 -99 -99 -99 000 -99 -99 -99 000 -99 000 000 000 000 000 000 -99 -99 001 -99 -99 -99 -99 -99 -99 -99
